53
1200
2162
37111
51528
53400
55658
56810
59522
67518
75673
85182
86304
87532
88036
88224
88780
89596
90026
97302
100898
106394
107092
109036
136872
145926
152713
153962
166056
167136
169440
170808
172514
176214
178732
182090
185114
205442
206910
213696
227088
237336
245113
257472
262032
262608
263496
263524
265348
308550
315794
316924
346588
347980
